p cnf 24 95
1 2 3 0 
-1 -2 0 
-1 -3 0 
-2 -3 0 
4 5 6 0 
-4 -5 0 
-4 -6 0 
-5 -6 0 
7 8 9 0 
-7 -8 0 
-7 -9 0 
-8 -9 0 
10 11 12 0 
-10 -11 0 
-10 -12 0 
-11 -12 0 
13 14 15 0 
-13 -14 0 
-13 -15 0 
-14 -15 0 
16 17 18 0 
-16 -17 0 
-16 -18 0 
-17 -18 0 
19 20 21 0 
-19 -20 0 
-19 -21 0 
-20 -21 0 
22 23 24 0 
-22 -23 0 
-22 -24 0 
-23 -24 0 
-1 -22 0
-2 -23 0
-3 -24 0
-1 -19 0
-2 -20 0
-3 -21 0
-1 -16 0
-2 -17 0
-3 -18 0
-1 -13 0
-2 -14 0
-3 -15 0
-1 -10 0
-2 -11 0
-3 -12 0
-1 -7 0
-2 -8 0
-3 -9 0
-1 -4 0
-2 -5 0
-3 -6 0
-4 -22 0
-5 -23 0
-6 -24 0
-4 -19 0
-5 -20 0
-6 -21 0
-4 -7 0
-5 -8 0
-6 -9 0
-4 -1 0
-5 -2 0
-6 -3 0
-7 -22 0
-8 -23 0
-9 -24 0
-7 -19 0
-8 -20 0
-9 -21 0
-7 -16 0
-8 -17 0
-9 -18 0
-7 -10 0
-8 -11 0
-9 -12 0
-7 -4 0
-8 -5 0
-9 -6 0
-7 -1 0
-8 -2 0
-9 -3 0
-10 -22 0
-11 -23 0
-12 -24 0
-10 -19 0
-11 -20 0
-12 -21 0
-10 -13 0
-11 -14 0
-12 -15 0
-10 -7 0
-11 -8 0
-12 -9 0
-10 -1 0
-11 -2 0
-12 -3 0
-13 -22 0
-14 -23 0
-15 -24 0
-13 -19 0
-14 -20 0
-15 -21 0
-13 -16 0
-14 -17 0
-15 -18 0
-13 -10 0
-14 -11 0
-15 -12 0
-13 -1 0
-14 -2 0
-15 -3 0
-16 -13 0
-17 -14 0
-18 -15 0
-16 -7 0
-17 -8 0
-18 -9 0
-16 -1 0
-17 -2 0
-18 -3 0
-19 -22 0
-20 -23 0
-21 -24 0
-19 -13 0
-20 -14 0
-21 -15 0
-19 -10 0
-20 -11 0
-21 -12 0
-19 -7 0
-20 -8 0
-21 -9 0
-19 -4 0
-20 -5 0
-21 -6 0
-19 -1 0
-20 -2 0
-21 -3 0
-22 -19 0
-23 -20 0
-24 -21 0
-22 -13 0
-23 -14 0
-24 -15 0
-22 -10 0
-23 -11 0
-24 -12 0
-22 -7 0
-23 -8 0
-24 -9 0
-22 -4 0
-23 -5 0
-24 -6 0
-22 -1 0
-23 -2 0
-24 -3 0
